44
75
60	5
59	1
58	3
57	2
56	3
55	1
54	1
53	2
50	5
49	1
48	1
47	2
46	2
45	1
44	2
43	1
41	4
40	3
39	1
38	2
37	3
36	2
34	2
33	3
32	2
30	1
29	3
28	3
27	2
25	1
24	5
23	1
21	2
20	4
19	2
18	4
17	2
16	1
14	1
13	2
11	3
10	1
8	5
7	2
